
Gurobi 7.0.2 (win64, Python) logging started 02/26/18 23:19:56

Optimize a model with 2 rows, 3 columns and 5 nonzeros
Variable types: 0 continuous, 3 integer (3 binary)
Coefficient statistics:
  Matrix range     [1e+00, 3e+00]
  Objective range  [1e+00, 2e+00]
  Bounds range     [1e+00, 1e+00]
  RHS range        [1e+00, 4e+00]
Presolve removed 2 rows and 3 columns
Presolve time: 0.00s
Presolve: All rows and columns removed

Explored 0 nodes (0 simplex iterations) in 0.02 seconds
Thread count was 1 (of 4 available processors)

Solution count 1: 3 
Pool objective bound 3

Optimal solution found (tolerance 1.00e-04)
Best objective 3.000000000000e+00, best bound 3.000000000000e+00, gap 0.0000%

Gurobi 7.0.2 (win64, Python) logging started 03/05/18 15:22:28

Optimize a model with 2 rows, 3 columns and 5 nonzeros
Variable types: 0 continuous, 3 integer (3 binary)
Coefficient statistics:
  Matrix range     [1e+00, 3e+00]
  Objective range  [1e+00, 2e+00]
  Bounds range     [1e+00, 1e+00]
  RHS range        [1e+00, 4e+00]
Presolve removed 2 rows and 3 columns
Presolve time: 0.09s
Presolve: All rows and columns removed

Explored 0 nodes (0 simplex iterations) in 0.11 seconds
Thread count was 1 (of 4 available processors)

Solution count 1: 3 
Pool objective bound 3

Optimal solution found (tolerance 1.00e-04)
Best objective 3.000000000000e+00, best bound 3.000000000000e+00, gap 0.0000%
Optimize a model with 6 rows, 5 columns and 21 nonzeros
Coefficient statistics:
  Matrix range     [1e+00, 2e+02]
  Objective range  [4e+00, 4e+01]
  Bounds range     [0e+00, 0e+00]
  RHS range        [1e+00, 5e+02]
Presolve time: 0.00s
Presolved: 6 rows, 5 columns, 21 nonzeros

Iteration    Objective       Primal Inf.    Dual Inf.      Time
       0    1.0000000e+01   2.218750e+00   0.000000e+00      0s
       3    3.6271186e+01   0.000000e+00   0.000000e+00      0s

Solved in 3 iterations and 0.00 seconds
Optimal objective  3.627118644e+01
Optimize a model with 6 rows, 5 columns and 21 nonzeros
Variable types: 0 continuous, 5 integer (0 binary)
Coefficient statistics:
  Matrix range     [1e+00, 2e+02]
  Objective range  [4e+00, 4e+01]
  Bounds range     [0e+00, 0e+00]
  RHS range        [1e+00, 5e+02]
Presolve removed 2 rows and 0 columns
Presolve time: 0.00s
Presolved: 4 rows, 5 columns, 16 nonzeros
Variable types: 0 continuous, 5 integer (2 binary)
Found heuristic solution: objective 85.0000000
Found heuristic solution: objective 60.0000000

Root relaxation: objective 5.700000e+01, 0 iterations, 0.00 seconds

    Nodes    |    Current Node    |     Objective Bounds      |     Work
 Expl Unexpl |  Obj  Depth IntInf | Incumbent    BestBd   Gap | It/Node Time

*    0     0               0      57.0000000   57.00000  0.00%     -    0s

Explored 0 nodes (0 simplex iterations) in 0.02 seconds
Thread count was 4 (of 4 available processors)

Solution count 3: 57 60 85 
Pool objective bound 57

Optimal solution found (tolerance 1.00e-04)
Best objective 5.700000000000e+01, best bound 5.700000000000e+01, gap 0.0000%
Optimize a model with 6 rows, 5 columns and 21 nonzeros
Variable types: 0 continuous, 5 integer (0 binary)
Coefficient statistics:
  Matrix range     [1e+00, 2e+02]
  Objective range  [4e+00, 4e+01]
  Bounds range     [0e+00, 0e+00]
  RHS range        [1e+00, 5e+02]
Presolve removed 2 rows and 0 columns
Presolve time: 0.00s
Presolved: 4 rows, 5 columns, 16 nonzeros
Variable types: 0 continuous, 5 integer (2 binary)
Found heuristic solution: objective 85.0000000
Found heuristic solution: objective 60.0000000

Root relaxation: objective 5.700000e+01, 0 iterations, 0.00 seconds

    Nodes    |    Current Node    |     Objective Bounds      |     Work
 Expl Unexpl |  Obj  Depth IntInf | Incumbent    BestBd   Gap | It/Node Time

*    0     0               0      57.0000000   57.00000  0.00%     -    0s

Explored 0 nodes (0 simplex iterations) in 0.02 seconds
Thread count was 4 (of 4 available processors)

Solution count 3: 57 60 85 
Pool objective bound 57

Optimal solution found (tolerance 1.00e-04)
Best objective 5.700000000000e+01, best bound 5.700000000000e+01, gap 0.0000%
Optimize a model with 6 rows, 5 columns and 21 nonzeros
Variable types: 0 continuous, 5 integer (0 binary)
Coefficient statistics:
  Matrix range     [1e+00, 2e+02]
  Objective range  [4e+00, 4e+01]
  Bounds range     [0e+00, 0e+00]
  RHS range        [1e+00, 5e+02]
Presolve removed 2 rows and 0 columns
Presolve time: 0.00s
Presolved: 4 rows, 5 columns, 16 nonzeros
Variable types: 0 continuous, 5 integer (2 binary)
Found heuristic solution: objective 85.0000000
Found heuristic solution: objective 60.0000000

Root relaxation: objective 5.700000e+01, 0 iterations, 0.00 seconds

    Nodes    |    Current Node    |     Objective Bounds      |     Work
 Expl Unexpl |  Obj  Depth IntInf | Incumbent    BestBd   Gap | It/Node Time

*    0     0               0      57.0000000   57.00000  0.00%     -    0s

Explored 0 nodes (0 simplex iterations) in 0.02 seconds
Thread count was 4 (of 4 available processors)

Solution count 3: 57 60 85 
Pool objective bound 57

Optimal solution found (tolerance 1.00e-04)
Best objective 5.700000000000e+01, best bound 5.700000000000e+01, gap 0.0000%
Optimize a model with 7 rows, 6 columns and 25 nonzeros
Variable types: 0 continuous, 6 integer (0 binary)
Coefficient statistics:
  Matrix range     [1e+00, 2e+02]
  Objective range  [4e+00, 4e+01]
  Bounds range     [0e+00, 0e+00]
  RHS range        [1e+00, 6e+02]
Presolve removed 3 rows and 1 columns
Presolve time: 0.00s
Presolved: 4 rows, 5 columns, 16 nonzeros
Variable types: 0 continuous, 5 integer (2 binary)
Found heuristic solution: objective 85.0000000
Found heuristic solution: objective 60.0000000

Root relaxation: objective 5.700000e+01, 0 iterations, 0.00 seconds

    Nodes    |    Current Node    |     Objective Bounds      |     Work
 Expl Unexpl |  Obj  Depth IntInf | Incumbent    BestBd   Gap | It/Node Time

*    0     0               0      57.0000000   57.00000  0.00%     -    0s

Explored 0 nodes (0 simplex iterations) in 0.02 seconds
Thread count was 4 (of 4 available processors)

Solution count 3: 57 60 85 
Pool objective bound 57

Optimal solution found (tolerance 1.00e-04)
Best objective 5.700000000000e+01, best bound 5.700000000000e+01, gap 0.0000%
Optimize a model with 7 rows, 6 columns and 25 nonzeros
Variable types: 0 continuous, 6 integer (0 binary)
Coefficient statistics:
  Matrix range     [1e+00, 2e+02]
  Objective range  [4e+00, 4e+01]
  Bounds range     [0e+00, 0e+00]
  RHS range        [1e+00, 6e+02]
Presolve removed 3 rows and 1 columns
Presolve time: 0.00s
Presolved: 4 rows, 5 columns, 16 nonzeros
Variable types: 0 continuous, 5 integer (2 binary)
Found heuristic solution: objective 85.0000000
Found heuristic solution: objective 60.0000000

Root relaxation: objective 5.700000e+01, 0 iterations, 0.00 seconds

    Nodes    |    Current Node    |     Objective Bounds      |     Work
 Expl Unexpl |  Obj  Depth IntInf | Incumbent    BestBd   Gap | It/Node Time

*    0     0               0      57.0000000   57.00000  0.00%     -    0s

Explored 0 nodes (0 simplex iterations) in 0.02 seconds
Thread count was 4 (of 4 available processors)

Solution count 3: 57 60 85 
Pool objective bound 57

Optimal solution found (tolerance 1.00e-04)
Best objective 5.700000000000e+01, best bound 5.700000000000e+01, gap 0.0000%
Optimize a model with 7 rows, 6 columns and 25 nonzeros
Variable types: 0 continuous, 6 integer (0 binary)
Coefficient statistics:
  Matrix range     [1e+00, 2e+02]
  Objective range  [4e+00, 4e+01]
  Bounds range     [0e+00, 0e+00]
  RHS range        [1e+00, 6e+02]
Presolve removed 3 rows and 1 columns
Presolve time: 0.00s
Presolved: 4 rows, 5 columns, 16 nonzeros
Variable types: 0 continuous, 5 integer (2 binary)
Found heuristic solution: objective 85.0000000
Found heuristic solution: objective 60.0000000

Root relaxation: objective 5.700000e+01, 0 iterations, 0.00 seconds

    Nodes    |    Current Node    |     Objective Bounds      |     Work
 Expl Unexpl |  Obj  Depth IntInf | Incumbent    BestBd   Gap | It/Node Time

*    0     0               0      57.0000000   57.00000  0.00%     -    0s

Explored 0 nodes (0 simplex iterations) in 0.02 seconds
Thread count was 4 (of 4 available processors)

Solution count 3: 57 60 85 
Pool objective bound 57

Optimal solution found (tolerance 1.00e-04)
Best objective 5.700000000000e+01, best bound 5.700000000000e+01, gap 0.0000%
Optimize a model with 7 rows, 6 columns and 25 nonzeros
Variable types: 0 continuous, 6 integer (0 binary)
Coefficient statistics:
  Matrix range     [1e+00, 2e+02]
  Objective range  [4e+00, 4e+01]
  Bounds range     [0e+00, 0e+00]
  RHS range        [1e+00, 6e+02]
Presolve removed 3 rows and 1 columns
Presolve time: 0.00s
Presolved: 4 rows, 5 columns, 16 nonzeros
Variable types: 0 continuous, 5 integer (2 binary)
Found heuristic solution: objective 85.0000000
Found heuristic solution: objective 60.0000000

Root relaxation: objective 5.700000e+01, 0 iterations, 0.00 seconds

    Nodes    |    Current Node    |     Objective Bounds      |     Work
 Expl Unexpl |  Obj  Depth IntInf | Incumbent    BestBd   Gap | It/Node Time

*    0     0               0      57.0000000   57.00000  0.00%     -    0s

Explored 0 nodes (0 simplex iterations) in 0.02 seconds
Thread count was 4 (of 4 available processors)

Solution count 3: 57 60 85 
Pool objective bound 57

Optimal solution found (tolerance 1.00e-04)
Best objective 5.700000000000e+01, best bound 5.700000000000e+01, gap 0.0000%

Gurobi 7.0.2 (win64, Python) logging started 03/05/18 20:21:53

